min: 1.0Emax;
1.0Emax >= 1.0E_0;
1.0Emax >= 1.0E_7;
1.0Emax >= 1.0E_8;
1.0Emax >= 1.0E_9;
1.0Emax >= 1.0E_10;
1.0Emax >= 1.0E_11;
1.0Emax >= 1.0E_12;
1.0Emax >= 1.0E_13;
1.0E_0 >= 10.0X_0_chef;
1.0E_7 >= 10.0X_7_chef;
1.0E_8 >= 10.0X_8_chef;
1.0E_9 >= 120.0X_9_kettle + 400.0X_9_hobsub1 + 400.0X_9_hobsub2;
1.0E_10 >= 7.0X_10_chef;
1.0E_11 >= 300.0X_11_worktop;
1.0E_12 >= 5.0X_12_chef;
1.0E_13 >= 7.0X_13_chef;
1.0E_9 >= 1.0E_8 + 120.0X_9_kettle + 400.0X_9_hobsub1 + 400.0X_9_hobsub2;
1.0E_10 >= 1.0E_7 + 7.0X_10_chef;
1.0E_10 >= 1.0E_9 + 7.0X_10_chef;
1.0E_11 >= 1.0E_10 + 300.0X_11_worktop;
1.0E_12 >= 1.0E_11 + 5.0X_12_chef;
1.0E_13 >= 1.0E_0 + 7.0X_13_chef;
1.0E_13 >= 1.0E_12 + 7.0X_13_chef;
1.0X_0_chef = 1.0;
1.0X_7_chef = 1.0;
1.0X_8_chef = 1.0;
1.0X_9_kettle + 1.0X_9_hobsub1 + 1.0X_9_hobsub2 = 1.0;
1.0X_10_chef = 1.0;
1.0X_11_worktop = 1.0;
1.0X_12_chef = 1.0;
1.0X_13_chef = 1.0;
1.0O_0_7 + 1.0 >= 1.0X_0_chef + 1.0X_7_chef;
1.0O_0_8 + 1.0 >= 1.0X_0_chef + 1.0X_8_chef;
1.0O_0_10 + 1.0 >= 1.0X_0_chef + 1.0X_10_chef;
1.0O_0_12 + 1.0 >= 1.0X_0_chef + 1.0X_12_chef;
1.0O_0_13 + 1.0 >= 1.0X_0_chef + 1.0X_13_chef;
1.0O_7_0 + 1.0 >= 1.0X_7_chef + 1.0X_0_chef;
1.0O_7_8 + 1.0 >= 1.0X_7_chef + 1.0X_8_chef;
1.0O_7_10 + 1.0 >= 1.0X_7_chef + 1.0X_10_chef;
1.0O_7_12 + 1.0 >= 1.0X_7_chef + 1.0X_12_chef;
1.0O_7_13 + 1.0 >= 1.0X_7_chef + 1.0X_13_chef;
1.0O_8_0 + 1.0 >= 1.0X_8_chef + 1.0X_0_chef;
1.0O_8_7 + 1.0 >= 1.0X_8_chef + 1.0X_7_chef;
1.0O_8_10 + 1.0 >= 1.0X_8_chef + 1.0X_10_chef;
1.0O_8_12 + 1.0 >= 1.0X_8_chef + 1.0X_12_chef;
1.0O_8_13 + 1.0 >= 1.0X_8_chef + 1.0X_13_chef;
1.0O_10_0 + 1.0 >= 1.0X_10_chef + 1.0X_0_chef;
1.0O_10_7 + 1.0 >= 1.0X_10_chef + 1.0X_7_chef;
1.0O_10_8 + 1.0 >= 1.0X_10_chef + 1.0X_8_chef;
1.0O_10_12 + 1.0 >= 1.0X_10_chef + 1.0X_12_chef;
1.0O_10_13 + 1.0 >= 1.0X_10_chef + 1.0X_13_chef;
1.0O_12_0 + 1.0 >= 1.0X_12_chef + 1.0X_0_chef;
1.0O_12_7 + 1.0 >= 1.0X_12_chef + 1.0X_7_chef;
1.0O_12_8 + 1.0 >= 1.0X_12_chef + 1.0X_8_chef;
1.0O_12_10 + 1.0 >= 1.0X_12_chef + 1.0X_10_chef;
1.0O_12_13 + 1.0 >= 1.0X_12_chef + 1.0X_13_chef;
1.0O_13_0 + 1.0 >= 1.0X_13_chef + 1.0X_0_chef;
1.0O_13_7 + 1.0 >= 1.0X_13_chef + 1.0X_7_chef;
1.0O_13_8 + 1.0 >= 1.0X_13_chef + 1.0X_8_chef;
1.0O_13_10 + 1.0 >= 1.0X_13_chef + 1.0X_10_chef;
1.0O_13_12 + 1.0 >= 1.0X_13_chef + 1.0X_12_chef;
1.0E_0 >= 10.0X_0_chef + 1.0E_7 - 1905.0 + 1905.0O_0_7 - 1905.0Y_0_7;
1.0E_0 >= 10.0X_0_chef + 1.0E_8 - 1905.0 + 1905.0O_0_8 - 1905.0Y_0_8;
1.0E_0 >= 10.0X_0_chef + 1.0E_10 - 1905.0 + 1905.0O_0_10 - 1905.0Y_0_10;
1.0E_0 >= 10.0X_0_chef + 1.0E_12 - 1905.0 + 1905.0O_0_12 - 1905.0Y_0_12;
1.0E_0 >= 10.0X_0_chef + 1.0E_13 - 1905.0 + 1905.0O_0_13 - 1905.0Y_0_13;
1.0E_7 >= 10.0X_7_chef + 1.0E_0 - 1905.0 + 1905.0O_7_0 - 1905.0Y_7_0;
1.0E_7 >= 10.0X_7_chef + 1.0E_8 - 1905.0 + 1905.0O_7_8 - 1905.0Y_7_8;
1.0E_7 >= 10.0X_7_chef + 1.0E_10 - 1905.0 + 1905.0O_7_10 - 1905.0Y_7_10;
1.0E_7 >= 10.0X_7_chef + 1.0E_12 - 1905.0 + 1905.0O_7_12 - 1905.0Y_7_12;
1.0E_7 >= 10.0X_7_chef + 1.0E_13 - 1905.0 + 1905.0O_7_13 - 1905.0Y_7_13;
1.0E_8 >= 10.0X_8_chef + 1.0E_0 - 1905.0 + 1905.0O_8_0 - 1905.0Y_8_0;
1.0E_8 >= 10.0X_8_chef + 1.0E_7 - 1905.0 + 1905.0O_8_7 - 1905.0Y_8_7;
1.0E_8 >= 10.0X_8_chef + 1.0E_10 - 1905.0 + 1905.0O_8_10 - 1905.0Y_8_10;
1.0E_8 >= 10.0X_8_chef + 1.0E_12 - 1905.0 + 1905.0O_8_12 - 1905.0Y_8_12;
1.0E_8 >= 10.0X_8_chef + 1.0E_13 - 1905.0 + 1905.0O_8_13 - 1905.0Y_8_13;
1.0E_10 >= 7.0X_10_chef + 1.0E_0 - 1905.0 + 1905.0O_10_0 - 1905.0Y_10_0;
1.0E_10 >= 7.0X_10_chef + 1.0E_7 - 1905.0 + 1905.0O_10_7 - 1905.0Y_10_7;
1.0E_10 >= 7.0X_10_chef + 1.0E_8 - 1905.0 + 1905.0O_10_8 - 1905.0Y_10_8;
1.0E_10 >= 7.0X_10_chef + 1.0E_12 - 1905.0 + 1905.0O_10_12 - 1905.0Y_10_12;
1.0E_10 >= 7.0X_10_chef + 1.0E_13 - 1905.0 + 1905.0O_10_13 - 1905.0Y_10_13;
1.0E_12 >= 5.0X_12_chef + 1.0E_0 - 1905.0 + 1905.0O_12_0 - 1905.0Y_12_0;
1.0E_12 >= 5.0X_12_chef + 1.0E_7 - 1905.0 + 1905.0O_12_7 - 1905.0Y_12_7;
1.0E_12 >= 5.0X_12_chef + 1.0E_8 - 1905.0 + 1905.0O_12_8 - 1905.0Y_12_8;
1.0E_12 >= 5.0X_12_chef + 1.0E_10 - 1905.0 + 1905.0O_12_10 - 1905.0Y_12_10;
1.0E_12 >= 5.0X_12_chef + 1.0E_13 - 1905.0 + 1905.0O_12_13 - 1905.0Y_12_13;
1.0E_13 >= 7.0X_13_chef + 1.0E_0 - 1905.0 + 1905.0O_13_0 - 1905.0Y_13_0;
1.0E_13 >= 7.0X_13_chef + 1.0E_7 - 1905.0 + 1905.0O_13_7 - 1905.0Y_13_7;
1.0E_13 >= 7.0X_13_chef + 1.0E_8 - 1905.0 + 1905.0O_13_8 - 1905.0Y_13_8;
1.0E_13 >= 7.0X_13_chef + 1.0E_10 - 1905.0 + 1905.0O_13_10 - 1905.0Y_13_10;
1.0E_13 >= 7.0X_13_chef + 1.0E_12 - 1905.0 + 1905.0O_13_12 - 1905.0Y_13_12;
1.0E_7 >= 10.0X_7_chef + 1.0E_0 - 1905.0 + 1905.0O_0_7 - 1905.0 + 1905.0Y_0_7;
1.0E_8 >= 10.0X_8_chef + 1.0E_0 - 1905.0 + 1905.0O_0_8 - 1905.0 + 1905.0Y_0_8;
1.0E_10 >= 7.0X_10_chef + 1.0E_0 - 1905.0 + 1905.0O_0_10 - 1905.0 + 1905.0Y_0_10;
1.0E_12 >= 5.0X_12_chef + 1.0E_0 - 1905.0 + 1905.0O_0_12 - 1905.0 + 1905.0Y_0_12;
1.0E_13 >= 7.0X_13_chef + 1.0E_0 - 1905.0 + 1905.0O_0_13 - 1905.0 + 1905.0Y_0_13;
1.0E_0 >= 10.0X_0_chef + 1.0E_7 - 1905.0 + 1905.0O_7_0 - 1905.0 + 1905.0Y_7_0;
1.0E_8 >= 10.0X_8_chef + 1.0E_7 - 1905.0 + 1905.0O_7_8 - 1905.0 + 1905.0Y_7_8;
1.0E_10 >= 7.0X_10_chef + 1.0E_7 - 1905.0 + 1905.0O_7_10 - 1905.0 + 1905.0Y_7_10;
1.0E_12 >= 5.0X_12_chef + 1.0E_7 - 1905.0 + 1905.0O_7_12 - 1905.0 + 1905.0Y_7_12;
1.0E_13 >= 7.0X_13_chef + 1.0E_7 - 1905.0 + 1905.0O_7_13 - 1905.0 + 1905.0Y_7_13;
1.0E_0 >= 10.0X_0_chef + 1.0E_8 - 1905.0 + 1905.0O_8_0 - 1905.0 + 1905.0Y_8_0;
1.0E_7 >= 10.0X_7_chef + 1.0E_8 - 1905.0 + 1905.0O_8_7 - 1905.0 + 1905.0Y_8_7;
1.0E_10 >= 7.0X_10_chef + 1.0E_8 - 1905.0 + 1905.0O_8_10 - 1905.0 + 1905.0Y_8_10;
1.0E_12 >= 5.0X_12_chef + 1.0E_8 - 1905.0 + 1905.0O_8_12 - 1905.0 + 1905.0Y_8_12;
1.0E_13 >= 7.0X_13_chef + 1.0E_8 - 1905.0 + 1905.0O_8_13 - 1905.0 + 1905.0Y_8_13;
1.0E_0 >= 10.0X_0_chef + 1.0E_10 - 1905.0 + 1905.0O_10_0 - 1905.0 + 1905.0Y_10_0;
1.0E_7 >= 10.0X_7_chef + 1.0E_10 - 1905.0 + 1905.0O_10_7 - 1905.0 + 1905.0Y_10_7;
1.0E_8 >= 10.0X_8_chef + 1.0E_10 - 1905.0 + 1905.0O_10_8 - 1905.0 + 1905.0Y_10_8;
1.0E_12 >= 5.0X_12_chef + 1.0E_10 - 1905.0 + 1905.0O_10_12 - 1905.0 + 1905.0Y_10_12;
1.0E_13 >= 7.0X_13_chef + 1.0E_10 - 1905.0 + 1905.0O_10_13 - 1905.0 + 1905.0Y_10_13;
1.0E_0 >= 10.0X_0_chef + 1.0E_12 - 1905.0 + 1905.0O_12_0 - 1905.0 + 1905.0Y_12_0;
1.0E_7 >= 10.0X_7_chef + 1.0E_12 - 1905.0 + 1905.0O_12_7 - 1905.0 + 1905.0Y_12_7;
1.0E_8 >= 10.0X_8_chef + 1.0E_12 - 1905.0 + 1905.0O_12_8 - 1905.0 + 1905.0Y_12_8;
1.0E_10 >= 7.0X_10_chef + 1.0E_12 - 1905.0 + 1905.0O_12_10 - 1905.0 + 1905.0Y_12_10;
1.0E_13 >= 7.0X_13_chef + 1.0E_12 - 1905.0 + 1905.0O_12_13 - 1905.0 + 1905.0Y_12_13;
1.0E_0 >= 10.0X_0_chef + 1.0E_13 - 1905.0 + 1905.0O_13_0 - 1905.0 + 1905.0Y_13_0;
1.0E_7 >= 10.0X_7_chef + 1.0E_13 - 1905.0 + 1905.0O_13_7 - 1905.0 + 1905.0Y_13_7;
1.0E_8 >= 10.0X_8_chef + 1.0E_13 - 1905.0 + 1905.0O_13_8 - 1905.0 + 1905.0Y_13_8;
1.0E_10 >= 7.0X_10_chef + 1.0E_13 - 1905.0 + 1905.0O_13_10 - 1905.0 + 1905.0Y_13_10;
1.0E_12 >= 5.0X_12_chef + 1.0E_13 - 1905.0 + 1905.0O_13_12 - 1905.0 + 1905.0Y_13_12;
bin X_0_chef,X_7_chef,X_8_chef,X_9_kettle,X_9_hobsub1,X_9_hobsub2,X_10_chef,X_11_worktop,X_12_chef,X_13_chef;
bin Y_0_7,Y_0_8,Y_0_10,Y_0_12,Y_0_13,Y_7_0,Y_7_8,Y_7_10,Y_7_12,Y_7_13,Y_8_0,Y_8_7,Y_8_10,Y_8_12,Y_8_13,Y_10_0,Y_10_7,Y_10_8,Y_10_12,Y_10_13,Y_12_0,Y_12_7,Y_12_8,Y_12_10,Y_12_13,Y_13_0,Y_13_7,Y_13_8,Y_13_10,Y_13_12;
bin O_0_7,O_0_8,O_0_10,O_0_12,O_0_13,O_7_0,O_7_8,O_7_10,O_7_12,O_7_13,O_8_0,O_8_7,O_8_10,O_8_12,O_8_13,O_10_0,O_10_7,O_10_8,O_10_12,O_10_13,O_12_0,O_12_7,O_12_8,O_12_10,O_12_13,O_13_0,O_13_7,O_13_8,O_13_10,O_13_12;